(set-logic ALL)
(set-option :produce-models true)
(define-fun-rec str.toLower ((x String)) String
  (ite (= x "")
      ""
      (let ((Head (str.at x 0)))
        (str.++ 
          (ite (and (<= 65 (str.to_code Head)) 
                     (<= (str.to_code Head) 90))
               (str.from_code (+ (str.to_code Head) 32))
               Head)
          (str.toLower (str.substr x 1 (- (str.len x) 1)))))))
(declare-fun sym5050 () String)
(declare-fun sym205 () String)
(declare-fun sym547 () String)
(declare-fun sym1669 () String)
(declare-fun sym2318 () String)
(declare-fun sym1886 () String)
(declare-fun sym1028 () String)
(declare-fun sym3789 () String)
(declare-fun sym4211 () String)
(declare-fun sym5463 () String)
(declare-fun sym161 () String)
(declare-fun sym812 () String)
(declare-fun sym2726 () String)
(declare-fun sym1237 () String)
(declare-fun sym2943 () String)
(declare-fun sym4427 () String)
(declare-fun sym4844 () String)
(declare-fun sym3577 () String)
(declare-fun sym1453 () String)
(declare-fun sym2520 () String)
(declare-fun sym2102 () String)
(declare-fun sym4005 () String)
(declare-fun sym3159 () String)
(declare-fun sym4642 () String)
(declare-fun sym5257 () String)
(declare-fun sym3375 () String)

(assert (not (= (str.toLower (str.substr sym4005  0 1))"p" )))
(assert (not (= "" sym5257 )))
(assert (not (= (str.toLower (str.substr sym5257  0 1))"k" )))
(assert (not (= "" sym3577 )))
(assert (not (= (str.toLower (str.substr sym3577  0 1))"r" )))
(assert (not (= "" sym1886 )))
(assert (not (= "" sym4844 )))
(assert (not (= (str.toLower (str.substr sym1669  0 1))"q" )))
(assert (not (= (str.toLower (str.substr sym4642  0 1))"q" )))
(assert (not (= (str.toLower (str.substr sym1237  0 1))"q" )))
(assert (not (= "" sym4005 )))
(assert (not (= (str.toLower (str.substr sym5050  0 1))"k" )))
(assert (not (= (str.toLower (str.substr sym1453  0 1))"q" )))
(assert (= (str.toLower (str.substr sym2520  0 1))"g" ))
(assert (= (str.toLower (str.substr sym2943  0 1))"g" ))
(assert (= (str.toLower (str.substr sym1669  0 1))"g" ))
(assert (not (= (str.toLower (str.substr sym2943  0 1))"k" )))
(assert (not (= (str.toLower (str.substr sym2726  0 1))"k" )))
(assert (= (str.toLower (str.substr sym3789  0 1))"g" ))
(assert (not (= "" sym2520 )))
(assert (not (= (str.toLower (str.substr sym1028  0 1))"q" )))
(assert (not (= (str.toLower (str.substr sym3789  0 1))"q" )))
(assert (= (str.toLower (str.substr sym4642  0 1))"g" ))
(assert (not (= (str.toLower (str.substr sym4844  0 1))"q" )))
(assert (not (= (str.toLower (str.substr sym5050  0 1))"q" )))
(assert (= (str.toLower (str.substr sym4427  0 1))"h" ))
(assert (= (str.toLower (str.substr sym4844  0 1))"g" ))
(assert (= (str.toLower (str.substr sym1453  0 1))"g" ))
(assert (not (= (str.toLower (str.substr sym4642  0 1))"k" )))
(assert (= (str.toLower (str.substr sym4005  0 1))"g" ))
(assert (not (= "" "q" )))
(assert (not (= (str.toLower (str.substr sym4427  0 1))"g" )))
(assert (not (= (str.toLower (str.substr sym4427  0 1))"k" )))
(assert (not (= (str.toLower (str.substr sym3577  0 1))"q" )))
(assert (not (= "" sym1237 )))
(assert (= "y" "y" ))
(assert (not (= (str.toLower (str.substr sym1886  0 1))"p" )))
(assert (not (= "" sym3375 )))
(assert (not (= "" sym4427 )))
(assert (not (= (str.toLower (str.substr sym4844  0 1))"p" )))
(assert (not (= (str.toLower (str.substr sym2102  0 1))"q" )))
(assert (not (= (str.toLower (str.substr sym5463  0 1))"q" )))
(assert (not (= "y" "n" )))
(assert (not (= (str.toLower (str.substr sym812  0 1))"p" )))
(assert (= "" "" ))
(assert (not (= (str.toLower (str.substr sym3159  0 1))"k" )))
(assert (not (= (str.toLower (str.substr sym1028  0 1))"p" )))
(assert (= (str.toLower (str.substr sym547  0 1))"g" ))
(assert (not (= "" sym5463 )))
(assert (not (= (str.toLower (str.substr sym3375  0 1))"q" )))
(assert (not (= "" sym547 )))
(assert (not (= "" sym2318 )))
(assert (not (= (str.toLower (str.substr sym2726  0 1))"p" )))
(assert (not (= (str.toLower (str.substr sym2318  0 1))"p" )))
(assert (not (= (str.toLower (str.substr sym2520  0 1))"q" )))
(assert (not (= "" sym1453 )))
(assert (not (= "" sym161 )))
(assert (not (= (str.toLower (str.substr sym5257  0 1))"q" )))
(assert (not (= "" sym1028 )))
(assert (not (= (str.toLower (str.substr sym3577  0 1))"p" )))
(assert (not (= (str.toLower (str.substr sym3789  0 1))"p" )))
(assert (not (= (str.toLower (str.substr sym547  0 1))"q" )))
(assert (not (= (str.toLower (str.substr sym3577  0 1))"k" )))
(assert (= (str.toLower (str.substr sym2102  0 1))"g" ))
(assert (not (= (str.toLower (str.substr sym1886  0 1))"r" )))
(assert (not (= (str.toLower (str.substr sym2726  0 1))"q" )))
(assert (not (= "" sym1669 )))
(assert (not (= (str.toLower (str.substr sym1237  0 1))"k" )))
(assert (not (= (str.toLower (str.substr sym547  0 1))"k" )))
(assert (not (= (str.toLower (str.substr sym4211  0 1))"k" )))
(assert (not (= (str.toLower (str.substr sym4005  0 1))"q" )))
(assert (not (= (str.toLower (str.substr sym547  0 1))"p" )))
(assert (not (= (str.toLower (str.substr sym1028  0 1))"k" )))
(assert (not (= (str.toLower (str.substr sym5257  0 1))"p" )))
(assert (not (= (str.toLower (str.substr sym1886  0 1))"q" )))
(assert (not (= (str.toLower (str.substr sym5463  0 1))"g" )))
(assert (not (= "" sym2726 )))
(assert (not (= (str.toLower (str.substr sym2102  0 1))"p" )))
(assert (not (= "" sym2943 )))
(assert (= (str.toLower (str.substr sym1237  0 1))"g" ))
(assert (not (= (str.toLower (str.substr sym2520  0 1))"p" )))
(assert (= (str.toLower (str.substr sym2726  0 1))"h" ))
(assert (not (= (str.toLower (str.substr sym1886  0 1))"g" )))
(assert (not (= (str.toLower (str.substr sym5463  0 1))"p" )))
(assert (not (= "" sym5050 )))
(assert (not (= (str.toLower (str.substr sym5257  0 1))"g" )))
(assert (not (= "" sym205 )))
(assert (not (= "" sym3789 )))
(assert (= (str.toLower (str.substr sym2318  0 1))"g" ))
(assert (not (= (str.toLower (str.substr sym1237  0 1))"p" )))
(assert (not (= "" sym2102 )))
(assert (= (str.toLower (str.substr sym3375  0 1))"g" ))
(assert (= (str.toLower (str.substr sym4211  0 1))"g" ))
(assert (not (= (str.toLower (str.substr sym812  0 1))"q" )))
(assert (not (= (str.toLower (str.substr sym4005  0 1))"k" )))
(assert (not (= (str.toLower (str.substr sym3375  0 1))"k" )))
(assert (= (str.toLower (str.substr sym5050  0 1))"g" ))
(assert (= (str.toLower (str.substr sym812  0 1))"g" ))
(assert (not (= (str.toLower (str.substr sym4427  0 1))"q" )))
(assert (not (= "" "y" )))
(assert (not (= (str.toLower (str.substr sym2520  0 1))"k" )))
(assert (= (str.toLower (str.substr sym205  0 1))"y" ))
(assert (not (= (str.toLower (str.substr sym2318  0 1))"q" )))
(assert (= (str.toLower (str.substr sym1028  0 1))"g" ))
(assert (not (= (str.toLower (str.substr sym4211  0 1))"p" )))
(assert (not (= (str.toLower (str.substr sym5257  0 1))"r" )))
(assert (not (= (str.toLower (str.substr sym2318  0 1))"k" )))
(assert (not (= (str.toLower (str.substr sym4642  0 1))"p" )))
(assert (not (= (str.toLower (str.substr sym1453  0 1))"p" )))
(assert (= (str.toLower (str.substr sym5463  0 1))"l" ))
(assert (not (= (str.toLower (str.substr sym3159  0 1))"q" )))
(assert (not (= (str.toLower (str.substr sym3577  0 1))"g" )))
(assert (= (str.toLower (str.substr sym3577  0 1))"l" ))
(assert (not (= "" sym812 )))
(assert (not (= (str.toLower (str.substr sym5463  0 1))"k" )))
(assert (not (= (str.toLower (str.substr sym2943  0 1))"q" )))
(assert (not (= (str.toLower (str.substr sym2726  0 1))"r" )))
(assert (not (= "" sym4211 )))
(assert (not (= (str.toLower (str.substr sym1453  0 1))"k" )))
(assert (not (= (str.toLower (str.substr sym4427  0 1))"r" )))
(assert (not (= (str.toLower (str.substr sym3159  0 1))"p" )))
(assert (not (= (str.toLower (str.substr sym2726  0 1))"g" )))
(assert (not (= (str.toLower (str.substr sym4211  0 1))"q" )))
(assert (not (= (str.toLower (str.substr sym5050  0 1))"p" )))
(assert (not (= "" "y" )))
(assert (not (= (str.toLower (str.substr sym2943  0 1))"p" )))
(assert (not (= (str.toLower (str.substr sym1669  0 1))"p" )))
(assert (= (str.toLower (str.substr sym5257  0 1))"l" ))
(assert (not (= (str.toLower (str.substr sym4844  0 1))"k" )))
(assert (not (= "" sym3159 )))
(assert (not (= (str.toLower (str.substr sym2726  0 1))"l" )))
(assert (not (= "" (str.toLower (str.substr sym205  0 1)))))
(assert (= (str.toLower (str.substr sym3159  0 1))"g" ))
(assert (not (= (str.toLower (str.substr sym3375  0 1))"p" )))
(assert (not (= (str.toLower (str.substr sym812  0 1))"k" )))
(assert (not (= (str.toLower (str.substr sym5463  0 1))"r" )))
(assert (not (= (str.toLower (str.substr sym2102  0 1))"k" )))
(assert (not (= (str.toLower (str.substr sym4427  0 1))"l" )))
(assert (not (= (str.toLower (str.substr sym1886  0 1))"k" )))
(assert (not (= "" sym4642 )))
(assert (not (= (str.toLower (str.substr sym1669  0 1))"k" )))
(assert (= (str.toLower (str.substr sym1886  0 1))"l" ))
(assert (not (= (str.toLower (str.substr sym3789  0 1))"k" )))
(assert (not (= (str.toLower (str.substr sym4427  0 1))"p" )))
(check-sat)
(get-model)
(exit)
